<?xml version = "1.0" encoding="UTF-8" standalone="yes"?>
<CPLEXSolution version="1.2">
 <header
   problemName="mknap01_2"
   solutionName="incumbent"
   solutionIndex="-1"
   objectiveValue="9297.7124668435008"
   solutionTypeValue="3"
   solutionTypeString="primal"
   solutionStatusValue="101"
   solutionStatusString="integer optimal solution"
   solutionMethodString="mip"
   primalFeasible="1"
   dualFeasible="1"
   MIPNodes="0"
   MIPIterations="4"
   writeLevel="1"/>
 <quality
   epInt="1.0000000000000001e-05"
   epRHS="9.9999999999999995e-07"
   maxIntInfeas="0"
   maxPrimalInfeas="0"
   maxX="1"
   maxSlack="58.45358090185681"/>
 <linearConstraints>
  <constraint name="c0" index="0" slack="58.45358090185681"/>
  <constraint name="c1" index="1" slack="0"/>
  <constraint name="c2" index="2" slack="0"/>
  <constraint name="c3" index="3" slack="25.578249336870044"/>
  <constraint name="c4" index="4" slack="33.236074270557026"/>
  <constraint name="c5" index="5" slack="32.230769230769226"/>
  <constraint name="c6" index="6" slack="33.705570291777207"/>
  <constraint name="c7" index="7" slack="10.164456233421788"/>
  <constraint name="c8" index="8" slack="25.082228116710894"/>
  <constraint name="c9" index="9" slack="0"/>
 </linearConstraints>
 <variables>
  <variable name="x0" index="0" value="0.77453580901856767"/>
  <variable name="x1" index="1" value="1"/>
  <variable name="x2" index="2" value="0.43687002652519891"/>
  <variable name="x3" index="3" value="0.86684350132625987"/>
  <variable name="x4" index="4" value="0"/>
  <variable name="x5" index="5" value="1"/>
  <variable name="x6" index="6" value="0"/>
  <variable name="x7" index="7" value="1"/>
  <variable name="x8" index="8" value="0"/>
  <variable name="x9" index="9" value="0"/>
 </variables>
 <objectiveValues>
  <objective index="0" name="" value="9297.7124668435008"/>
 </objectiveValues>
</CPLEXSolution>
